c colouring generated by benchmark framework
p edge 25 160
v 1 4
v 2 6
v 3 3
v 4 0
v 5 2
v 6 1
v 7 2
v 8 5
v 9 4
v 10 6
v 11 6
v 12 4
v 13 1
v 14 2
v 15 0
v 16 2
v 17 3
v 18 0
v 19 5
v 20 4
v 21 5
v 22 1
v 23 4
v 24 6
v 25 3
